
Gurobi 10.0.1 (win64) logging started Wed May 24 11:37:07 2023

Set parameter LogFile to value "logFiles/A-2L-B/A-2L-6U-55F-15V-365D-basic-heuristic.log"
Gurobi Optimizer version 10.0.1 build v10.0.1rc0 (win64)

CPU model: Intel(R) Core(TM) i7-10700 CPU @ 2.90GHz, instruction set [SSE2|AVX|AVX2]
Thread count: 8 physical cores, 16 logical processors, using up to 16 threads

Optimize a model with 158969 rows, 1575925 columns and 11531842 nonzeros
Model fingerprint: 0x8f903251
Variable types: 3294 continuous, 1572631 integer (1572631 binary)
Coefficient statistics:
  Matrix range     [1e+00, 2e+05]
  Objective range  [4e+01, 3e+07]
  Bounds range     [1e+00, 1e+00]
  RHS range        [1e+00, 8e+06]

Loaded user MIP start with objective 2.54611e+09

Presolve removed 107418 rows and 77326 columns (presolve time = 5s) ...
Presolve removed 109311 rows and 77326 columns (presolve time = 10s) ...
Presolve removed 109311 rows and 77331 columns (presolve time = 15s) ...
Presolve removed 109311 rows and 77331 columns (presolve time = 20s) ...
Presolve removed 109199 rows and 77219 columns
Presolve time: 24.21s
Presolved: 49770 rows, 1498706 columns, 8762873 nonzeros
Variable types: 3324 continuous, 1495382 integer (1495329 binary)
Deterministic concurrent LP optimizer: primal simplex, dual simplex, and barrier
Showing barrier log only...

Root barrier log...

Ordering time: 4.07s

Barrier statistics:
 AA' NZ     : 3.990e+06
 Factor NZ  : 4.734e+07 (roughly 1.0 GB of memory)
 Factor Ops : 2.158e+11 (roughly 2 seconds per iteration)
 Threads    : 6

                  Objective                Residual
Iter       Primal          Dual         Primal    Dual     Compl     Time
   0  -3.15764767e+17  6.85771006e+12  2.90e+10 5.95e+04  4.96e+11    43s
   1  -6.53845770e+16  1.15929658e+13  6.06e+09 4.56e+05  1.04e+11    45s
   2  -8.60011134e+15  1.25857993e+13  8.00e+08 2.06e+03  1.39e+10    48s
   3  -1.31703003e+14  8.54395288e+12  1.22e+07 2.05e+01  2.15e+08    51s
   4  -2.79965184e+13  2.37946129e+12  2.60e+06 1.63e-09  4.73e+07    54s
   5  -5.03014422e+12  1.89110617e+12  4.67e+05 1.63e-09  8.98e+06    58s
   6  -3.65892295e+11  1.13141422e+12  3.42e+04 1.16e-09  9.90e+05    63s
   7  -2.47976523e+11  5.81017398e+11  2.32e+04 1.28e-09  5.68e+05    68s
   8  -1.56491812e+10  2.06375003e+11  1.71e+03 1.57e-09  9.24e+04    74s
   9  -4.34467614e+09  8.10789419e+10  6.71e+02 4.45e-09  3.45e+04    79s
  10  -6.39976559e+08  4.44253747e+10  3.39e+02 4.87e-09  1.79e+04    83s
  11   1.27217697e+09  2.68550151e+10  1.68e+02 1.10e-08  9.92e+03    88s
  12   1.69921548e+09  1.61057343e+10  1.30e+02 9.94e-09  5.86e+03    91s
  13   2.37332109e+09  1.42160984e+10  7.02e+01 9.98e-09  4.52e+03    95s
  14   2.65128903e+09  1.21317420e+10  4.61e+01 1.07e-08  3.54e+03    99s
  15   2.72972437e+09  1.02611128e+10  3.97e+01 1.29e-08  2.84e+03   102s
  16   2.78657387e+09  8.25259238e+09  3.49e+01 1.78e-08  2.11e+03   106s
  17   2.92228620e+09  6.61379404e+09  2.41e+01 2.17e-08  1.43e+03   110s
  18   2.99094464e+09  5.89018228e+09  1.94e+01 2.43e-08  1.12e+03   115s
  19   3.04789189e+09  5.41775059e+09  1.47e+01 3.36e-08  9.07e+02   119s
  20   3.11658099e+09  5.10683924e+09  9.85e+00 2.68e-08  7.42e+02   124s
  21   3.17429193e+09  4.48147491e+09  5.33e+00 2.91e-08  4.77e+02   129s
  22   3.20099940e+09  4.31046521e+09  3.40e+00 3.61e-08  3.95e+02   133s
  23   3.23033021e+09  3.75238202e+09  1.56e+00 3.48e-08  1.82e+02   138s
  24   3.24525709e+09  3.54054170e+09  8.65e-01 3.51e-08  1.01e+02   142s
  25   3.25552760e+09  3.49552419e+09  5.55e-01 3.58e-08  8.17e+01   147s
  26   3.25923104e+09  3.44227578e+09  4.83e-01 4.02e-08  6.22e+01   150s
  27   3.26182792e+09  3.42059149e+09  4.29e-01 3.80e-08  5.39e+01   154s
  28   3.26478579e+09  3.38292433e+09  3.73e-01 4.90e-08  4.01e+01   158s
  29   3.26894715e+09  3.36736601e+09  2.99e-01 4.25e-08  3.33e+01   161s
  30   3.27135211e+09  3.35454260e+09  2.69e-01 3.94e-08  2.82e+01   166s
  31   3.27281916e+09  3.34955813e+09  2.41e-01 4.51e-08  2.60e+01   170s
  32   3.27846895e+09  3.33729552e+09  1.68e-01 5.23e-08  1.98e+01   175s
  33   3.27969055e+09  3.33029473e+09  1.54e-01 4.48e-08  1.71e+01   179s
  34   3.28522813e+09  3.32435815e+09  9.41e-02 4.39e-08  1.32e+01   184s
  35   3.28892797e+09  3.31873351e+09  6.56e-02 4.41e-08  1.00e+01   188s
  36   3.29154617e+09  3.31298628e+09  4.81e-02 4.56e-08  7.21e+00   193s
  37   3.29269985e+09  3.30974003e+09  4.11e-02 4.10e-08  5.73e+00   198s
  38   3.29443291e+09  3.30782606e+09  3.10e-02 4.19e-08  4.50e+00   203s
  39   3.29530492e+09  3.30656355e+09  2.64e-02 5.21e-08  3.79e+00   208s
  40   3.29647787e+09  3.30527266e+09  2.03e-02 6.89e-08  2.96e+00   212s
  41   3.29696518e+09  3.30479698e+09  1.78e-02 6.28e-08  2.63e+00   217s
  42   3.29794450e+09  3.30385963e+09  1.30e-02 6.69e-08  1.99e+00   221s
  43   3.29875415e+09  3.30302155e+09  9.08e-03 6.68e-08  1.44e+00   226s
  44   3.29943026e+09  3.30229938e+09  5.97e-03 5.44e-08  9.65e-01   231s
  45   3.29977135e+09  3.30194551e+09  4.43e-03 8.29e-08  7.31e-01   236s
  46   3.30006459e+09  3.30165451e+09  3.13e-03 8.26e-08  5.35e-01   240s
  47   3.30019217e+09  3.30157140e+09  2.59e-03 7.08e-08  4.64e-01   245s
  48   3.30037644e+09  3.30139145e+09  1.78e-03 7.90e-08  3.41e-01   249s
  49   3.30055873e+09  3.30123433e+09  1.01e-03 6.65e-08  2.27e-01   254s
  50   3.30064644e+09  3.30110635e+09  6.40e-04 6.19e-08  1.54e-01   258s
  51   3.30068731e+09  3.30103176e+09  4.65e-04 5.78e-08  1.16e-01   262s
  52   3.30072932e+09  3.30097950e+09  2.94e-04 7.13e-08  8.40e-02   267s
  53   3.30075135e+09  3.30093308e+09  2.05e-04 6.37e-08  6.10e-02   272s
  54   3.30077990e+09  3.30087523e+09  8.94e-05 5.87e-08  3.20e-02   276s
  55   3.30079535e+09  3.30084188e+09  3.29e-05 6.24e-08  1.56e-02   281s
  56   3.30080107e+09  3.30082326e+09  1.15e-05 6.80e-08  7.44e-03   285s
  57   3.30080290e+09  3.30081215e+09  7.93e-06 5.77e-08  3.10e-03   289s
  58   3.30080406e+09  3.30080782e+09  2.56e-06 6.80e-08  1.27e-03   293s
  59   3.30080461e+09  3.30080638e+09  3.91e-06 6.57e-08  5.99e-04   296s
  60   3.30080510e+09  3.30080546e+09  6.28e-07 6.61e-08  1.20e-04   300s
  61   3.30080519e+09  3.30080522e+09  3.18e-08 6.99e-08  7.85e-06   305s
  62   3.30080520e+09  3.30080520e+09  8.44e-08 7.69e-08  8.99e-08   309s
  63   3.30080520e+09  3.30080520e+09  2.87e-09 5.98e-08  5.17e-11   313s

Barrier solved model in 63 iterations and 313.25 seconds (213.24 work units)
Optimal objective 3.30080520e+09


Root crossover log...

   38518 DPushes remaining with DInf 0.0000000e+00               314s
     129 DPushes remaining with DInf 0.0000000e+00               318s
      59 DPushes remaining with DInf 0.0000000e+00               322s
       0 DPushes remaining with DInf 0.0000000e+00               325s

    2297 PPushes remaining with PInf 0.0000000e+00               325s
       0 PPushes remaining with PInf 0.0000000e+00               325s

  Push phase complete: Pinf 0.0000000e+00, Dinf 2.4528530e+01    325s


Root simplex log...

Iteration    Objective       Primal Inf.    Dual Inf.      Time
   40817    3.3008052e+09   0.000000e+00   2.452851e+01    325s
   40833    3.3008052e+09   0.000000e+00   0.000000e+00    326s
Concurrent spin time: 31.19s

Solved with barrier
   40833    3.3008052e+09   0.000000e+00   0.000000e+00    358s

Root relaxation: objective 3.300805e+09, 40833 iterations, 328.54 seconds (154.67 work units)
Total elapsed time = 360.66s

    Nodes    |    Current Node    |     Objective Bounds      |     Work
 Expl Unexpl |  Obj  Depth IntInf | Incumbent    BestBd   Gap | It/Node Time

     0     0 3.3008e+09    0 2357 2.5461e+09 3.3008e+09  29.6%     -  367s
H    0     0                    2.877838e+09 3.3008e+09  14.7%     -  574s
     0     0 3.2993e+09    0 2228 2.8778e+09 3.2993e+09  14.6%     - 1365s
     0     0 3.2993e+09    0 2228 2.8778e+09 3.2993e+09  14.6%     - 1366s
     0     0 3.2992e+09    0 2052 2.8778e+09 3.2992e+09  14.6%     - 3685s
     0     0 3.2992e+09    0 2058 2.8778e+09 3.2992e+09  14.6%     - 3939s
     0     0 3.2992e+09    0 2106 2.8778e+09 3.2992e+09  14.6%     - 3986s
     0     0 3.2991e+09    0 1952 2.8778e+09 3.2991e+09  14.6%     - 4722s
     0     0 3.2991e+09    0 1974 2.8778e+09 3.2991e+09  14.6%     - 5576s
     0     0 3.2991e+09    0 2005 2.8778e+09 3.2991e+09  14.6%     - 5751s
     0     0 3.2991e+09    0 1973 2.8778e+09 3.2991e+09  14.6%     - 5882s
     0     0 3.2991e+09    0 1953 2.8778e+09 3.2991e+09  14.6%     - 5892s
     0     0 3.2991e+09    0 2082 2.8778e+09 3.2991e+09  14.6%     - 6307s
     0     0 3.2991e+09    0 2052 2.8778e+09 3.2991e+09  14.6%     - 6534s
     0     0 3.2991e+09    0 2057 2.8778e+09 3.2991e+09  14.6%     - 6581s
     0     0 3.2990e+09    0 1960 2.8778e+09 3.2990e+09  14.6%     - 6846s
     0     0 3.2990e+09    0 1990 2.8778e+09 3.2990e+09  14.6%     - 7303s
     0     0 3.2990e+09    0 1941 2.8778e+09 3.2990e+09  14.6%     - 7385s
     0     0 3.2990e+09    0 1908 2.8778e+09 3.2990e+09  14.6%     - 7608s
     0     0 3.2990e+09    0 1988 2.8778e+09 3.2990e+09  14.6%     - 7755s
     0     0 3.2990e+09    0 1950 2.8778e+09 3.2990e+09  14.6%     - 7795s
     0     0 3.2990e+09    0 1966 2.8778e+09 3.2990e+09  14.6%     - 7980s
     0     0 3.2990e+09    0 1992 2.8778e+09 3.2990e+09  14.6%     - 8134s
     0     0 3.2990e+09    0 2003 2.8778e+09 3.2990e+09  14.6%     - 8180s
     0     0 3.2990e+09    0 2072 2.8778e+09 3.2990e+09  14.6%     - 8378s
     0     0 3.2990e+09    0 2031 2.8778e+09 3.2990e+09  14.6%     - 8386s
     0     2 3.2990e+09    0 2018 2.8778e+09 3.2990e+09  14.6%     - 10512s
     1     4 3.2990e+09    1 2017 2.8778e+09 3.2990e+09  14.6% 68300 11126s
     3     8 3.2990e+09    2 1903 2.8778e+09 3.2990e+09  14.6% 32634 12851s

Cutting planes:
  Cover: 72
  Implied bound: 101
  Clique: 6
  MIR: 110
  Flow cover: 201
  GUB cover: 1
  Network: 17
  RLT: 48
  Relax-and-lift: 26

Explored 7 nodes (495902 simplex iterations) in 14401.74 seconds (15783.25 work units)
Thread count was 16 (of 16 available processors)

Solution count 2: 2.87784e+09 2.54611e+09 

Time limit reached
Best objective 2.877838236792e+09, best bound 3.299024187170e+09, gap 14.6355%
